sat
(:added-eqs                       2327
 :arith-eq-adapter                207
 :arith-bound-propagations-lp     96
 :arith-conflicts                 237
 :arith-diseq                     28
 :arith-fixed-eqs                 193
 :arith-grobner-calls             35
 :arith-grobner-conflicts         21
 :arith-horner-calls              9
 :arith-horner-cross-nested-forms 3573
 :arith-lower                     699
 :arith-make-feasible             400
 :arith-max-columns               798
 :arith-max-rows                  179
 :arith-nla-add-bounds            16
 :arith-nla-lemmas                142
 :arith-nla-propagate-bounds      77
 :arith-nla-propagate-eq          1050
 :arith-nra-calls                 5
 :arith-offset-eqs                11
 :arith-upper                     1040
 :binary-propagations             2591
 :conflicts                       34
 :decisions                       2564
 :del-clause                      196
 :elim-unconstrained              58
 :final-checks                    72
 :max-memory                      25.04
 :memory                          19.21
 :mk-bool-var                     1527
 :mk-clause                       511
 :mk-clause-binary                10027
 :nlsat-conflicts                 315
 :nlsat-decisions                 15
 :nlsat-propagations              20770
 :nlsat-restarts                  2
 :nlsat-stages                    12158
 :num-allocs                      43372057
 :num-checks                      1
 :propagations                    3192
 :rlimit-count                    332812
 :time                            0.18
 :total-time                      0.20)
